
Gurobi 10.0.2 (mac64[x86]) logging started Fri Sep 27 10:34:55 2024

Set parameter LogFile to value "results/ExampleConfig-All-States_gradient-cuts/SC-county-step-max-45.log"
Set parameter TimeLimit to value 10

Gurobi 10.0.2 (mac64[x86]) logging started Fri Sep 27 10:34:55 2024

Set parameter LogFile to value "results/ExampleConfig-All-States_gradient-cuts/SC-county-step-max-45.log"
Set parameter TimeLimit to value 10
Gurobi Optimizer version 10.0.2 build v10.0.2rc0 (mac64[x86])

CPU model: Intel(R) Core(TM) i7-9750H CPU @ 2.60GHz
Thread count: 6 physical cores, 12 logical processors, using up to 12 threads

Optimize a model with 428 rows, 1261 columns and 10259 nonzeros
Model fingerprint: 0xc3912295
Variable types: 577 continuous, 684 integer (684 binary)
Coefficient statistics:
  Matrix range     [2e-02, 7e+05]
  Objective range  [1e+00, 1e+00]
  Bounds range     [1e+00, 7e+05]
  RHS range        [1e+00, 2e+06]

Warning: Completing partial solution with 638 unfixed non-continuous variables out of 684
User MIP start produced solution with objective 1.33571 (0.11s)
User MIP start produced solution with objective 1.33571 (0.13s)
Loaded user MIP start with objective 1.33571

Presolve removed 121 rows and 2 columns
Presolve time: 0.02s
Presolved: 307 rows, 1259 columns, 8554 nonzeros
Variable types: 563 continuous, 696 integer (682 binary)
Root relaxation presolved: 240 rows, 1326 columns, 7461 nonzeros

Concurrent LP optimizer: primal simplex, dual simplex, and barrier
Showing barrier log only...

Root barrier log...

Ordering time: 0.00s

Barrier statistics:
 AA' NZ     : 5.584e+03
 Factor NZ  : 6.933e+03 (roughly 1 MB of memory)
 Factor Ops : 3.454e+05 (less than 1 second per iteration)
 Threads    : 1

Barrier performed 0 iterations in 0.25 seconds (0.08 work units)
Barrier solve interrupted - model solved by another algorithm


Solved with primal simplex

Root relaxation: objective 1.647523e+00, 526 iterations, 0.10 seconds (0.01 work units)

    Nodes    |    Current Node    |     Objective Bounds      |     Work
 Expl Unexpl |  Obj  Depth IntInf | Incumbent    BestBd   Gap | It/Node Time

     0     0    1.64752    0   40    1.33571    1.64752  23.3%     -    0s
     0     0    1.64033    0   50    1.33571    1.64033  22.8%     -    0s
     0     0    1.63948    0   53    1.33571    1.63948  22.7%     -    0s
     0     0    1.62294    0   57    1.33571    1.62294  21.5%     -    0s
     0     0    1.62283    0   61    1.33571    1.62283  21.5%     -    0s
     0     0    1.62159    0   66    1.33571    1.62159  21.4%     -    0s
     0     0    1.62151    0   64    1.33571    1.62151  21.4%     -    0s
     0     0    1.62150    0   69    1.33571    1.62150  21.4%     -    0s
     0     0    1.62138    0   72    1.33571    1.62138  21.4%     -    0s
     0     0    1.62138    0   70    1.33571    1.62138  21.4%     -    0s
     0     0    1.62138    0   70    1.33571    1.62138  21.4%     -    0s
     0     0    1.62138    0   66    1.33571    1.62138  21.4%     -    0s
     0     0    1.62138    0   66    1.33571    1.62138  21.4%     -    0s
     0     0    1.62138    0   66    1.33571    1.62138  21.4%     -    0s
     0     0    1.62138    0   65    1.33571    1.62138  21.4%     -    0s
     0     2    1.62130    0   65    1.33571    1.62130  21.4%     -    0s
H  210   198                       1.3357092    1.62036  21.3%  87.2    1s
  1319  1034    1.38933   61   86    1.33571    1.59266  19.2%  42.3    5s
H 1978  1269                       1.3357092    1.59266  19.2%  55.2    8s
  3816  2044    1.54686   24   79    1.33571    1.58927  19.0%  49.9   10s

Cutting planes:
  Gomory: 12
  Cover: 11
  MIR: 31
  StrongCG: 6
  Flow cover: 19
  GUB cover: 2
  Zero half: 4
  RLT: 1
  Relax-and-lift: 1
  Lazy constraints: 38

Explored 3989 nodes (198377 simplex iterations) in 10.04 seconds (7.44 work units)
Thread count was 12 (of 12 available processors)

Solution count 1: 1.33571 

Time limit reached
Best objective 1.335709170847e+00, best bound 1.589269639448e+00, gap 18.9832%

User-callback calls 12513, time in user-callback 0.23 sec
Warning: variable name "lam(0, 0, 'in')" has a space
Warning: constraint name "vertex to district[0]" has a space
Warning: to let Gurobi read it back, use rlp format
Warning: variable name "lam(0, 0, 'in')" has a space
Warning: default variable names used to write solution file

Gurobi 10.0.2 (mac64[x86]) logging started Fri Sep 27 11:05:36 2024

Set parameter LogFile to value "results/ExampleConfig-All-States_gradient-cuts/SC-county-step-max-45.log"
Set parameter TimeLimit to value 10

Gurobi 10.0.2 (mac64[x86]) logging started Fri Sep 27 11:05:36 2024

Set parameter LogFile to value "results/ExampleConfig-All-States_gradient-cuts/SC-county-step-max-45.log"
Set parameter TimeLimit to value 10
Gurobi Optimizer version 10.0.2 build v10.0.2rc0 (mac64[x86])

CPU model: Intel(R) Core(TM) i7-9750H CPU @ 2.60GHz
Thread count: 6 physical cores, 12 logical processors, using up to 12 threads

Optimize a model with 428 rows, 1261 columns and 10259 nonzeros
Model fingerprint: 0xc3912295
Variable types: 577 continuous, 684 integer (684 binary)
Coefficient statistics:
  Matrix range     [2e-02, 7e+05]
  Objective range  [1e+00, 1e+00]
  Bounds range     [1e+00, 7e+05]
  RHS range        [1e+00, 2e+06]

Warning: Completing partial solution with 638 unfixed non-continuous variables out of 684
User MIP start produced solution with objective 1.33571 (0.11s)
User MIP start produced solution with objective 1.33571 (0.13s)
Loaded user MIP start with objective 1.33571

Presolve removed 121 rows and 2 columns
Presolve time: 0.02s
Presolved: 307 rows, 1259 columns, 8554 nonzeros
Variable types: 563 continuous, 696 integer (682 binary)
Root relaxation presolved: 240 rows, 1326 columns, 7461 nonzeros

Concurrent LP optimizer: primal simplex, dual simplex, and barrier
Showing barrier log only...

Root barrier log...

Ordering time: 0.00s

Barrier statistics:
 AA' NZ     : 5.584e+03
 Factor NZ  : 6.933e+03 (roughly 1 MB of memory)
 Factor Ops : 3.454e+05 (less than 1 second per iteration)
 Threads    : 1

Barrier performed 0 iterations in 0.19 seconds (0.08 work units)
Barrier solve interrupted - model solved by another algorithm


Solved with primal simplex

Root relaxation: objective 1.647523e+00, 526 iterations, 0.03 seconds (0.01 work units)

    Nodes    |    Current Node    |     Objective Bounds      |     Work
 Expl Unexpl |  Obj  Depth IntInf | Incumbent    BestBd   Gap | It/Node Time

     0     0    1.64752    0   40    1.33571    1.64752  23.3%     -    0s
     0     0    1.64033    0   50    1.33571    1.64033  22.8%     -    0s
     0     0    1.63948    0   53    1.33571    1.63948  22.7%     -    0s
     0     0    1.62294    0   57    1.33571    1.62294  21.5%     -    0s
     0     0    1.62283    0   61    1.33571    1.62283  21.5%     -    0s
     0     0    1.62159    0   66    1.33571    1.62159  21.4%     -    0s
     0     0    1.62151    0   64    1.33571    1.62151  21.4%     -    0s
     0     0    1.62150    0   69    1.33571    1.62150  21.4%     -    0s
     0     0    1.62138    0   72    1.33571    1.62138  21.4%     -    0s
     0     0    1.62138    0   70    1.33571    1.62138  21.4%     -    0s
     0     0    1.62138    0   70    1.33571    1.62138  21.4%     -    0s
     0     0    1.62138    0   66    1.33571    1.62138  21.4%     -    0s
     0     0    1.62138    0   66    1.33571    1.62138  21.4%     -    0s
     0     0    1.62138    0   66    1.33571    1.62138  21.4%     -    0s
     0     0    1.62138    0   65    1.33571    1.62138  21.4%     -    0s
     0     2    1.62130    0   65    1.33571    1.62130  21.4%     -    0s
H  210   198                       1.3357092    1.62036  21.3%  87.2    1s
  1319  1034    1.38933   61   86    1.33571    1.59266  19.2%  42.3    5s
H 1978  1269                       1.3357092    1.59266  19.2%  55.2    8s
  3990  2043    1.49965   28   58    1.33571    1.58927  19.0%  49.5   10s

Cutting planes:
  Gomory: 12
  Cover: 11
  MIR: 32
  StrongCG: 6
  Flow cover: 19
  GUB cover: 2
  Zero half: 4
  RLT: 1
  Relax-and-lift: 1
  Lazy constraints: 38

Explored 4085 nodes (204569 simplex iterations) in 10.04 seconds (7.49 work units)
Thread count was 12 (of 12 available processors)

Solution count 1: 1.33571 

Time limit reached
Best objective 1.335709170847e+00, best bound 1.589269639448e+00, gap 18.9832%

User-callback calls 12675, time in user-callback 0.23 sec
Warning: variable name "lam(0, 0, 'in')" has a space
Warning: constraint name "vertex to district[0]" has a space
Warning: to let Gurobi read it back, use rlp format
Warning: variable name "lam(0, 0, 'in')" has a space
Warning: default variable names used to write solution file
